p edge 150 3600 120
e 1 2
e 1 3
e 1 4
e 1 5
e 1 6
e 1 7
e 1 8
e 1 9
e 1 10
e 1 11
e 1 12
e 1 13
e 1 14
e 1 15
e 1 16
e 1 17
e 1 18
e 1 19
e 1 20
e 1 21
e 1 22
e 1 23
e 1 24
e 1 25
e 1 26
e 1 27
e 1 28
e 1 29
e 1 30
e 1 31
e 1 32
e 1 33
e 1 34
e 1 35
e 1 36
e 1 37
e 1 38
e 1 39
e 1 40
e 1 41
e 1 42
e 1 43
e 1 44
e 1 45
e 1 47
e 1 48
e 1 49
e 1 50
e 1 51
e 1 53
e 1 54
e 1 55
e 1 60
e 1 61
e 1 63
e 1 64
e 1 67
e 1 69
e 1 70
e 1 72
e 1 80
e 1 81
e 1 82
e 1 88
e 1 91
e 1 92
e 1 93
e 1 96
e 1 97
e 1 99
e 1 100
e 1 101
e 1 102
e 1 107
e 1 110
e 1 113
e 1 115
e 1 120
e 1 125
e 1 126
e 1 131
e 1 132
e 1 135
e 1 138
e 1 139
e 1 144
e 1 145
e 1 146
e 2 32
e 2 33
e 2 34
e 2 35
e 2 36
e 2 37
e 2 39
e 2 40
e 2 41
e 2 45
e 2 47
e 2 51
e 2 54
e 2 55
e 2 57
e 2 62
e 2 63
e 2 70
e 2 74
e 2 76
e 2 77
e 2 78
e 2 87
e 2 95
e 2 97
e 2 98
e 2 99
e 2 100
e 2 105
e 2 109
e 2 111
e 2 113
e 2 118
e 2 121
e 2 129
e 2 141
e 2 142
e 3 32
e 3 33
e 3 34
e 3 35
e 3 36
e 3 37
e 3 39
e 3 40
e 3 41
e 3 42
e 3 43
e 3 44
e 3 45
e 3 48
e 3 49
e 3 51
e 3 52
e 3 53
e 3 54
e 3 55
e 3 56
e 3 57
e 3 62
e 3 63
e 3 69
e 3 70
e 3 71
e 3 76
e 3 79
e 3 81
e 3 82
e 3 85
e 3 96
e 3 104
e 3 105
e 3 110
e 3 111
e 3 113
e 3 117
e 3 118
e 3 122
e 3 123
e 3 132
e 3 134
e 3 136
e 3 139
e 4 32
e 4 33
e 4 34
e 4 35
e 4 37
e 4 38
e 4 39
e 4 40
e 4 41
e 4 44
e 4 46
e 4 47
e 4 50
e 4 54
e 4 56
e 4 57
e 4 58
e 4 59
e 4 64
e 4 73
e 4 77
e 4 82
e 4 83
e 4 86
e 4 92
e 4 95
e 4 99
e 4 100
e 4 101
e 4 106
e 4 107
e 4 109
e 4 111
e 4 113
e 4 125
e 4 126
e 4 128
e 4 135
e 4 137
e 4 141
e 4 142
e 4 143
e 4 147
e 5 32
e 5 33
e 5 34
e 5 35
e 5 36
e 5 37
e 5 38
e 5 39
e 5 40
e 5 41
e 5 42
e 5 43
e 5 45
e 5 48
e 5 51
e 5 53
e 5 55
e 5 58
e 5 64
e 5 73
e 5 74
e 5 75
e 5 77
e 5 78
e 5 79
e 5 81
e 5 83
e 5 85
e 5 87
e 5 107
e 5 117
e 5 120
e 5 125
e 5 132
e 5 134
e 5 135
e 5 136
e 6 32
e 6 33
e 6 34
e 6 35
e 6 36
e 6 37
e 6 39
e 6 40
e 6 41
e 6 42
e 6 43
e 6 44
e 6 45
e 6 48
e 6 49
e 6 55
e 6 65
e 6 70
e 6 72
e 6 86
e 6 90
e 6 93
e 6 99
e 6 100
e 6 113
e 6 119
e 6 120
e 6 124
e 6 127
e 6 136
e 6 143
e 6 147
e 7 32
e 7 33
e 7 34
e 7 35
e 7 36
e 7 37
e 7 38
e 7 40
e 7 41
e 7 42
e 7 43
e 7 45
e 7 46
e 7 47
e 7 52
e 7 53
e 7 58
e 7 59
e 7 60
e 7 62
e 7 67
e 7 68
e 7 72
e 7 78
e 7 80
e 7 93
e 7 102
e 7 106
e 7 115
e 7 124
e 7 125
e 7 130
e 7 134
e 7 143
e 8 32
e 8 33
e 8 34
e 8 36
e 8 37
e 8 38
e 8 40
e 8 41
e 8 45
e 8 49
e 8 50
e 8 51
e 8 52
e 8 53
e 8 54
e 8 55
e 8 56
e 8 57
e 8 58
e 8 64
e 8 73
e 8 76
e 8 77
e 8 84
e 8 87
e 8 94
e 8 97
e 8 99
e 8 100
e 8 120
e 8 124
e 8 132
e 8 134
e 8 137
e 8 139
e 8 145
e 9 32
e 9 33
e 9 34
e 9 35
e 9 36
e 9 40
e 9 42
e 9 43
e 9 44
e 9 45
e 9 47
e 9 48
e 9 50
e 9 54
e 9 56
e 9 57
e 9 58
e 9 59
e 9 61
e 9 62
e 9 64
e 9 67
e 9 68
e 9 75
e 9 77
e 9 79
e 9 81
e 9 87
e 9 95
e 9 97
e 9 101
e 9 104
e 9 106
e 9 107
e 9 115
e 9 121
e 9 125
e 9 128
e 9 136
e 9 147
e 10 32
e 10 33
e 10 34
e 10 35
e 10 36
e 10 37
e 10 38
e 10 40
e 10 41
e 10 42
e 10 43
e 10 44
e 10 46
e 10 47
e 10 48
e 10 50
e 10 51
e 10 55
e 10 56
e 10 62
e 10 63
e 10 65
e 10 68
e 10 69
e 10 70
e 10 71
e 10 72
e 10 75
e 10 80
e 10 91
e 10 92
e 10 93
e 10 97
e 10 120
e 10 125
e 10 132
e 10 141
e 10 144
e 10 149
e 11 32
e 11 33
e 11 35
e 11 36
e 11 39
e 11 40
e 11 43
e 11 47
e 11 51
e 11 52
e 11 54
e 11 58
e 11 62
e 11 65
e 11 67
e 11 72
e 11 73
e 11 76
e 11 77
e 11 88
e 11 89
e 11 90
e 11 105
e 11 110
e 11 118
e 11 120
e 11 122
e 11 123
e 11 136
e 11 140
e 11 146
e 11 149
e 12 32
e 12 33
e 12 34
e 12 35
e 12 36
e 12 37
e 12 39
e 12 40
e 12 42
e 12 47
e 12 48
e 12 49
e 12 51
e 12 53
e 12 59
e 12 60
e 12 72
e 12 76
e 12 79
e 12 83
e 12 84
e 12 86
e 12 88
e 12 89
e 12 90
e 12 91
e 12 96
e 12 108
e 12 110
e 12 118
e 12 130
e 12 135
e 12 143
e 12 150
e 13 33
e 13 34
e 13 35
e 13 36
e 13 38
e 13 40
e 13 44
e 13 46
e 13 49
e 13 51
e 13 52
e 13 57
e 13 58
e 13 61
e 13 62
e 13 69
e 13 73
e 13 74
e 13 75
e 13 77
e 13 80
e 13 84
e 13 86
e 13 89
e 13 104
e 13 107
e 13 109
e 13 114
e 13 124
e 13 133
e 13 142
e 13 149
e 14 32
e 14 37
e 14 38
e 14 39
e 14 40
e 14 41
e 14 42
e 14 44
e 14 50
e 14 51
e 14 52
e 14 58
e 14 70
e 14 72
e 14 73
e 14 86
e 14 114
e 14 116
e 14 136
e 14 138
e 14 148
e 15 32
e 15 33
e 15 34
e 15 35
e 15 36
e 15 38
e 15 39
e 15 41
e 15 42
e 15 43
e 15 46
e 15 47
e 15 48
e 15 51
e 15 53
e 15 54
e 15 56
e 15 57
e 15 65
e 15 66
e 15 67
e 15 81
e 15 90
e 15 92
e 15 104
e 15 113
e 15 116
e 15 120
e 15 123
e 15 127
e 15 130
e 15 136
e 15 145
e 15 148
e 16 32
e 16 33
e 16 34
e 16 35
e 16 38
e 16 39
e 16 40
e 16 41
e 16 42
e 16 44
e 16 45
e 16 46
e 16 55
e 16 56
e 16 65
e 16 66
e 16 69
e 16 73
e 16 81
e 16 83
e 16 85
e 16 91
e 16 98
e 16 109
e 16 125
e 16 127
e 16 133
e 16 139
e 17 32
e 17 34
e 17 35
e 17 36
e 17 37
e 17 38
e 17 39
e 17 42
e 17 43
e 17 44
e 17 45
e 17 46
e 17 49
e 17 53
e 17 56
e 17 57
e 17 61
e 17 64
e 17 65
e 17 67
e 17 72
e 17 78
e 17 79
e 17 80
e 17 81
e 17 82
e 17 83
e 17 85
e 17 87
e 17 88
e 17 90
e 17 91
e 17 96
e 17 101
e 17 103
e 17 104
e 17 105
e 17 106
e 17 111
e 17 115
e 17 116
e 17 117
e 17 119
e 17 125
e 17 129
e 17 140
e 17 145
e 18 32
e 18 33
e 18 34
e 18 35
e 18 36
e 18 37
e 18 38
e 18 39
e 18 41
e 18 42
e 18 44
e 18 45
e 18 46
e 18 47
e 18 48
e 18 49
e 18 50
e 18 52
e 18 53
e 18 54
e 18 60
e 18 64
e 18 67
e 18 70
e 18 76
e 18 78
e 18 84
e 18 85
e 18 89
e 18 90
e 18 94
e 18 96
e 18 100
e 18 111
e 18 116
e 18 117
e 18 118
e 18 119
e 18 121
e 18 125
e 18 128
e 18 130
e 18 132
e 18 133
e 18 135
e 18 136
e 18 141
e 18 144
e 19 32
e 19 33
e 19 34
e 19 36
e 19 37
e 19 38
e 19 43
e 19 45
e 19 53
e 19 60
e 19 69
e 19 81
e 19 82
e 19 83
e 19 85
e 19 88
e 19 93
e 19 96
e 19 98
e 19 105
e 19 107
e 19 108
e 19 116
e 19 121
e 19 130
e 19 133
e 19 143
e 19 145
e 20 32
e 20 33
e 20 34
e 20 35
e 20 36
e 20 37
e 20 38
e 20 39
e 20 40
e 20 43
e 20 45
e 20 46
e 20 47
e 20 48
e 20 49
e 20 51
e 20 52
e 20 53
e 20 54
e 20 55
e 20 56
e 20 57
e 20 59
e 20 63
e 20 66
e 20 68
e 20 71
e 20 72
e 20 74
e 20 76
e 20 80
e 20 82
e 20 85
e 20 87
e 20 88
e 20 91
e 20 101
e 20 102
e 20 104
e 20 105
e 20 107
e 20 109
e 20 110
e 20 111
e 20 112
e 20 114
e 20 117
e 20 120
e 20 121
e 20 122
e 20 129
e 20 134
e 20 137
e 21 32
e 21 33
e 21 34
e 21 35
e 21 36
e 21 37
e 21 38
e 21 40
e 21 42
e 21 43
e 21 48
e 21 49
e 21 53
e 21 64
e 21 65
e 21 69
e 21 86
e 21 87
e 21 92
e 21 95
e 21 113
e 21 119
e 21 120
e 21 148
e 22 32
e 22 33
e 22 34
e 22 35
e 22 36
e 22 37
e 22 39
e 22 41
e 22 42
e 22 43
e 22 44
e 22 45
e 22 49
e 22 50
e 22 51
e 22 53
e 22 62
e 22 63
e 22 65
e 22 66
e 22 73
e 22 75
e 22 77
e 22 88
e 22 92
e 22 98
e 22 101
e 22 103
e 22 108
e 22 110
e 22 115
e 22 125
e 22 137
e 22 138
e 22 142
e 23 32
e 23 33
e 23 34
e 23 35
e 23 37
e 23 38
e 23 39
e 23 40
e 23 41
e 23 42
e 23 43
e 23 44
e 23 46
e 23 47
e 23 48
e 23 50
e 23 53
e 23 54
e 23 55
e 23 56
e 23 60
e 23 61
e 23 62
e 23 63
e 23 68
e 23 70
e 23 71
e 23 73
e 23 74
e 23 75
e 23 77
e 23 79
e 23 100
e 23 101
e 23 106
e 23 108
e 23 109
e 23 112
e 23 114
e 23 115
e 23 122
e 23 138
e 23 142
e 23 147
e 23 148
e 24 32
e 24 33
e 24 34
e 24 35
e 24 36
e 24 38
e 24 41
e 24 43
e 24 46
e 24 49
e 24 54
e 24 56
e 24 58
e 24 63
e 24 69
e 24 70
e 24 71
e 24 73
e 24 80
e 24 81
e 24 83
e 24 85
e 24 89
e 24 90
e 24 102
e 24 105
e 24 111
e 24 123
e 24 137
e 24 144
e 25 32
e 25 33
e 25 35
e 25 36
e 25 37
e 25 38
e 25 39
e 25 41
e 25 42
e 25 43
e 25 46
e 25 47
e 25 52
e 25 53
e 25 55
e 25 56
e 25 58
e 25 59
e 25 60
e 25 65
e 25 71
e 25 73
e 25 84
e 25 102
e 25 104
e 25 114
e 25 119
e 25 120
e 25 129
e 25 134
e 25 143
e 25 146
e 25 150
e 26 32
e 26 33
e 26 34
e 26 35
e 26 36
e 26 37
e 26 38
e 26 39
e 26 40
e 26 42
e 26 43
e 26 44
e 26 45
e 26 46
e 26 47
e 26 49
e 26 50
e 26 52
e 26 53
e 26 57
e 26 58
e 26 59
e 26 60
e 26 61
e 26 62
e 26 64
e 26 66
e 26 67
e 26 68
e 26 69
e 26 70
e 26 71
e 26 73
e 26 76
e 26 78
e 26 80
e 26 81
e 26 82
e 26 84
e 26 85
e 26 94
e 26 96
e 26 98
e 26 99
e 26 100
e 26 101
e 26 103
e 26 106
e 26 108
e 26 111
e 26 118
e 26 120
e 26 122
e 26 123
e 26 126
e 26 133
e 26 134
e 26 137
e 26 139
e 26 141
e 26 143
e 26 146
e 26 147
e 26 150
e 27 32
e 27 33
e 27 34
e 27 35
e 27 36
e 27 37
e 27 38
e 27 39
e 27 40
e 27 41
e 27 43
e 27 44
e 27 45
e 27 47
e 27 50
e 27 51
e 27 52
e 27 58
e 27 60
e 27 64
e 27 67
e 27 68
e 27 69
e 27 70
e 27 75
e 27 77
e 27 90
e 27 92
e 27 98
e 27 102
e 27 114
e 27 122
e 27 127
e 27 129
e 27 133
e 27 138
e 27 142
e 28 32
e 28 33
e 28 34
e 28 37
e 28 38
e 28 39
e 28 41
e 28 43
e 28 44
e 28 46
e 28 51
e 28 54
e 28 55
e 28 57
e 28 61
e 28 62
e 28 66
e 28 74
e 28 78
e 28 79
e 28 80
e 28 82
e 28 86
e 28 104
e 28 108
e 28 121
e 28 127
e 28 128
e 28 137
e 28 150
e 29 32
e 29 33
e 29 34
e 29 35
e 29 36
e 29 37
e 29 38
e 29 39
e 29 40
e 29 41
e 29 42
e 29 44
e 29 45
e 29 46
e 29 48
e 29 49
e 29 50
e 29 55
e 29 57
e 29 58
e 29 59
e 29 63
e 29 66
e 29 67
e 29 68
e 29 69
e 29 71
e 29 74
e 29 76
e 29 79
e 29 81
e 29 86
e 29 87
e 29 88
e 29 89
e 29 91
e 29 92
e 29 96
e 29 99
e 29 102
e 29 104
e 29 106
e 29 119
e 29 126
e 29 128
e 29 135
e 29 138
e 29 144
e 30 32
e 30 33
e 30 34
e 30 35
e 30 36
e 30 37
e 30 38
e 30 39
e 30 40
e 30 42
e 30 44
e 30 47
e 30 48
e 30 49
e 30 50
e 30 52
e 30 53
e 30 54
e 30 56
e 30 59
e 30 61
e 30 62
e 30 64
e 30 65
e 30 66
e 30 67
e 30 68
e 30 69
e 30 71
e 30 72
e 30 74
e 30 75
e 30 77
e 30 79
e 30 81
e 30 82
e 30 84
e 30 86
e 30 90
e 30 92
e 30 93
e 30 94
e 30 97
e 30 99
e 30 101
e 30 102
e 30 106
e 30 108
e 30 109
e 30 110
e 30 112
e 30 115
e 30 120
e 30 121
e 30 122
e 30 127
e 30 130
e 30 131
e 30 137
e 30 142
e 30 146
e 30 147
e 30 150
e 31 32
e 31 33
e 31 34
e 31 35
e 31 36
e 31 37
e 31 38
e 31 39
e 31 40
e 31 41
e 31 43
e 31 44
e 31 45
e 31 46
e 31 47
e 31 48
e 31 49
e 31 50
e 31 51
e 31 52
e 31 53
e 31 57
e 31 59
e 31 65
e 31 66
e 31 69
e 31 73
e 31 74
e 31 76
e 31 79
e 31 83
e 31 89
e 31 90
e 31 92
e 31 97
e 31 109
e 31 119
e 31 128
e 31 133
e 31 141
e 31 143
e 32 33
e 32 34
e 32 35
e 32 36
e 32 37
e 32 38
e 32 39
e 32 40
e 32 41
e 32 42
e 32 44
e 32 45
e 32 46
e 32 47
e 32 48
e 32 49
e 32 50
e 32 51
e 32 52
e 32 53
e 32 54
e 32 56
e 32 57
e 32 59
e 32 60
e 32 61
e 32 63
e 32 64
e 32 65
e 32 66
e 32 67
e 32 68
e 32 70
e 32 71
e 32 72
e 32 74
e 32 79
e 32 82
e 32 83
e 32 84
e 32 85
e 32 86
e 32 87
e 32 88
e 32 91
e 32 92
e 32 94
e 32 97
e 32 98
e 32 99
e 32 100
e 32 101
e 32 103
e 32 105
e 32 106
e 32 107
e 32 108
e 32 110
e 32 114
e 32 116
e 32 117
e 32 118
e 32 120
e 32 121
e 32 132
e 32 136
e 32 139
e 32 140
e 32 143
e 32 144
e 32 145
e 32 146
e 33 34
e 33 35
e 33 36
e 33 37
e 33 38
e 33 39
e 33 40
e 33 41
e 33 42
e 33 43
e 33 44
e 33 45
e 33 46
e 33 47
e 33 48
e 33 49
e 33 50
e 33 51
e 33 52
e 33 53
e 33 54
e 33 55
e 33 56
e 33 59
e 33 60
e 33 61
e 33 62
e 33 63
e 33 65
e 33 66
e 33 67
e 33 70
e 33 71
e 33 72
e 33 74
e 33 77
e 33 81
e 33 83
e 33 84
e 33 85
e 33 86
e 33 87
e 33 88
e 33 89
e 33 92
e 33 94
e 33 96
e 33 98
e 33 99
e 33 100
e 33 106
e 33 107
e 33 108
e 33 111
e 33 115
e 33 130
e 33 137
e 33 140
e 33 146
e 33 147
e 33 148
e 33 150
e 34 35
e 34 36
e 34 37
e 34 38
e 34 39
e 34 40
e 34 41
e 34 42
e 34 43
e 34 44
e 34 45
e 34 46
e 34 47
e 34 48
e 34 49
e 34 50
e 34 51
e 34 52
e 34 53
e 34 54
e 34 55
e 34 57
e 34 58
e 34 59
e 34 60
e 34 61
e 34 63
e 34 64
e 34 66
e 34 67
e 34 68
e 34 69
e 34 71
e 34 72
e 34 73
e 34 74
e 34 75
e 34 77
e 34 78
e 34 79
e 34 80
e 34 81
e 34 82
e 34 84
e 34 85
e 34 86
e 34 87
e 34 88
e 34 89
e 34 90
e 34 94
e 34 95
e 34 96
e 34 98
e 34 99
e 34 103
e 34 104
e 34 105
e 34 109
e 34 115
e 34 116
e 34 117
e 34 119
e 34 120
e 34 121
e 34 124
e 34 128
e 34 131
e 34 133
e 34 138
e 34 139
e 34 141
e 34 142
e 34 143
e 34 146
e 34 148
e 34 149
e 34 150
e 35 36
e 35 37
e 35 38
e 35 39
e 35 40
e 35 41
e 35 42
e 35 43
e 35 44
e 35 45
e 35 46
e 35 47
e 35 48
e 35 50
e 35 51
e 35 53
e 35 55
e 35 56
e 35 57
e 35 58
e 35 59
e 35 60
e 35 61
e 35 62
e 35 63
e 35 65
e 35 66
e 35 67
e 35 69
e 35 72
e 35 74
e 35 76
e 35 77
e 35 78
e 35 79
e 35 80
e 35 81
e 35 84
e 35 90
e 35 91
e 35 93
e 35 94
e 35 95
e 35 97
e 35 99
e 35 100
e 35 101
e 35 102
e 35 105
e 35 106
e 35 108
e 35 110
e 35 112
e 35 113
e 35 117
e 35 122
e 35 124
e 35 125
e 35 126
e 35 127
e 35 132
e 35 133
e 35 135
e 35 137
e 35 139
e 35 140
e 35 144
e 35 145
e 35 146
e 35 147
e 35 149
e 35 150
e 36 37
e 36 38
e 36 39
e 36 40
e 36 41
e 36 42
e 36 43
e 36 44
e 36 46
e 36 47
e 36 48
e 36 50
e 36 52
e 36 53
e 36 56
e 36 59
e 36 60
e 36 61
e 36 63
e 36 64
e 36 66
e 36 67
e 36 68
e 36 69
e 36 70
e 36 71
e 36 72
e 36 75
e 36 76
e 36 78
e 36 80
e 36 81
e 36 82
e 36 84
e 36 90
e 36 91
e 36 93
e 36 94
e 36 95
e 36 102
e 36 103
e 36 108
e 36 109
e 36 114
e 36 116
e 36 118
e 36 120
e 36 126
e 36 127
e 36 128
e 36 129
e 36 133
e 36 134
e 36 135
e 36 136
e 36 138
e 36 139
e 36 140
e 36 144
e 36 145
e 36 148
e 37 38
e 37 39
e 37 41
e 37 42
e 37 43
e 37 44
e 37 45
e 37 46
e 37 47
e 37 48
e 37 49
e 37 51
e 37 52
e 37 57
e 37 58
e 37 60
e 37 62
e 37 65
e 37 67
e 37 69
e 37 70
e 37 71
e 37 72
e 37 73
e 37 74
e 37 76
e 37 83
e 37 84
e 37 85
e 37 86
e 37 87
e 37 89
e 37 91
e 37 93
e 37 94
e 37 96
e 37 97
e 37 100
e 37 101
e 37 104
e 37 107
e 37 108
e 37 112
e 37 115
e 37 116
e 37 118
e 37 119
e 37 121
e 37 122
e 37 123
e 37 125
e 37 129
e 37 133
e 37 137
e 37 138
e 37 140
e 37 143
e 37 144
e 37 148
e 37 149
e 38 39
e 38 40
e 38 41
e 38 42
e 38 43
e 38 44
e 38 45
e 38 46
e 38 47
e 38 48
e 38 49
e 38 50
e 38 51
e 38 52
e 38 54
e 38 57
e 38 58
e 38 59
e 38 60
e 38 61
e 38 63
e 38 66
e 38 67
e 38 68
e 38 69
e 38 70
e 38 73
e 38 74
e 38 77
e 38 78
e 38 79
e 38 82
e 38 84
e 38 85
e 38 87
e 38 89
e 38 92
e 38 93
e 38 94
e 38 95
e 38 98
e 38 99
e 38 102
e 38 104
e 38 106
e 38 109
e 38 111
e 38 112
e 38 113
e 38 114
e 38 117
e 38 118
e 38 121
e 38 122
e 38 123
e 38 124
e 38 126
e 38 129
e 38 130
e 38 131
e 38 137
e 38 138
e 38 140
e 38 143
e 38 144
e 38 146
e 38 147
e 38 149
e 38 150
e 39 40
e 39 41
e 39 42
e 39 43
e 39 44
e 39 45
e 39 46
e 39 47
e 39 48
e 39 49
e 39 50
e 39 51
e 39 52
e 39 54
e 39 55
e 39 56
e 39 57
e 39 58
e 39 59
e 39 60
e 39 62
e 39 64
e 39 65
e 39 67
e 39 68
e 39 69
e 39 71
e 39 73
e 39 74
e 39 75
e 39 76
e 39 78
e 39 79
e 39 80
e 39 84
e 39 86
e 39 87
e 39 88
e 39 89
e 39 93
e 39 94
e 39 96
e 39 98
e 39 99
e 39 100
e 39 101
e 39 102
e 39 103
e 39 104
e 39 105
e 39 106
e 39 107
e 39 108
e 39 111
e 39 112
e 39 115
e 39 118
e 39 120
e 39 122
e 39 123
e 39 124
e 39 126
e 39 127
e 39 133
e 39 135
e 39 139
e 39 142
e 39 144
e 39 149
e 40 41
e 40 42
e 40 43
e 40 44
e 40 45
e 40 46
e 40 47
e 40 48
e 40 49
e 40 50
e 40 51
e 40 52
e 40 53
e 40 55
e 40 56
e 40 57
e 40 58
e 40 59
e 40 60
e 40 61
e 40 62
e 40 63
e 40 64
e 40 66
e 40 67
e 40 68
e 40 71
e 40 72
e 40 73
e 40 74
e 40 75
e 40 78
e 40 80
e 40 81
e 40 83
e 40 84
e 40 86
e 40 87
e 40 88
e 40 90
e 40 91
e 40 92
e 40 93
e 40 95
e 40 100
e 40 103
e 40 104
e 40 109
e 40 111
e 40 116
e 40 119
e 40 123
e 40 125
e 40 126
e 40 129
e 40 133
e 40 137
e 40 139
e 40 141
e 41 42
e 41 43
e 41 44
e 41 45
e 41 46
e 41 47
e 41 48
e 41 49
e 41 50
e 41 51
e 41 52
e 41 53
e 41 54
e 41 55
e 41 56
e 41 57
e 41 59
e 41 60
e 41 61
e 41 63
e 41 64
e 41 65
e 41 66
e 41 67
e 41 69
e 41 73
e 41 74
e 41 79
e 41 91
e 41 92
e 41 95
e 41 96
e 41 98
e 41 99
e 41 104
e 41 109
e 41 110
e 41 111
e 41 118
e 41 120
e 41 121
e 41 122
e 41 127
e 41 129
e 41 130
e 41 131
e 41 133
e 41 134
e 41 135
e 41 136
e 41 140
e 41 147
e 41 148
e 41 149
e 42 44
e 42 45
e 42 46
e 42 47
e 42 48
e 42 49
e 42 50
e 42 51
e 42 52
e 42 53
e 42 54
e 42 58
e 42 59
e 42 60
e 42 61
e 42 62
e 42 63
e 42 64
e 42 65
e 42 68
e 42 71
e 42 72
e 42 73
e 42 75
e 42 77
e 42 78
e 42 79
e 42 82
e 42 83
e 42 86
e 42 98
e 42 99
e 42 100
e 42 103
e 42 107
e 42 111
e 42 112
e 42 119
e 42 122
e 42 126
e 42 129
e 42 130
e 42 131
e 42 135
e 42 139
e 42 141
e 42 149
e 43 45
e 43 46
e 43 47
e 43 48
e 43 50
e 43 51
e 43 52
e 43 53
e 43 54
e 43 55
e 43 56
e 43 59
e 43 61
e 43 62
e 43 64
e 43 66
e 43 67
e 43 68
e 43 72
e 43 75
e 43 76
e 43 79
e 43 81
e 43 83
e 43 84
e 43 85
e 43 88
e 43 89
e 43 90
e 43 91
e 43 92
e 43 98
e 43 99
e 43 101
e 43 103
e 43 105
e 43 108
e 43 109
e 43 111
e 43 115
e 43 120
e 43 124
e 43 125
e 43 127
e 43 133
e 43 140
e 43 145
e 43 148
e 43 149
e 44 45
e 44 46
e 44 47
e 44 48
e 44 49
e 44 50
e 44 55
e 44 56
e 44 58
e 44 60
e 44 61
e 44 64
e 44 65
e 44 67
e 44 68
e 44 69
e 44 70
e 44 71
e 44 76
e 44 77
e 44 85
e 44 86
e 44 87
e 44 89
e 44 91
e 44 94
e 44 95
e 44 96
e 44 101
e 44 105
e 44 106
e 44 107
e 44 109
e 44 110
e 44 111
e 44 113
e 44 114
e 44 116
e 44 118
e 44 119
e 44 124
e 44 126
e 44 129
e 44 134
e 44 143
e 44 147
e 44 149
e 45 46
e 45 48
e 45 49
e 45 51
e 45 52
e 45 53
e 45 54
e 45 55
e 45 56
e 45 57
e 45 58
e 45 59
e 45 60
e 45 61
e 45 62
e 45 63
e 45 65
e 45 66
e 45 67
e 45 68
e 45 70
e 45 71
e 45 74
e 45 75
e 45 76
e 45 77
e 45 78
e 45 79
e 45 83
e 45 84
e 45 88
e 45 89
e 45 92
e 45 93
e 45 95
e 45 96
e 45 101
e 45 104
e 45 105
e 45 107
e 45 108
e 45 109
e 45 111
e 45 112
e 45 113
e 45 115
e 45 119
e 45 120
e 45 130
e 45 134
e 45 137
e 45 139
e 45 146
e 45 147
e 45 150
e 46 49
e 46 50
e 46 51
e 46 52
e 46 53
e 46 54
e 46 56
e 46 57
e 46 59
e 46 63
e 46 64
e 46 66
e 46 68
e 46 69
e 46 72
e 46 74
e 46 75
e 46 76
e 46 80
e 46 81
e 46 83
e 46 84
e 46 86
e 46 88
e 46 92
e 46 93
e 46 94
e 46 95
e 46 97
e 46 99
e 46 104
e 46 107
e 46 108
e 46 113
e 46 114
e 46 115
e 46 116
e 46 119
e 46 125
e 46 126
e 46 127
e 46 128
e 46 129
e 46 133
e 46 136
e 46 137
e 46 139
e 46 146
e 46 147
e 46 150
e 47 48
e 47 49
e 47 50
e 47 51
e 47 52
e 47 54
e 47 55
e 47 59
e 47 61
e 47 62
e 47 63
e 47 71
e 47 72
e 47 76
e 47 80
e 47 82
e 47 83
e 47 84
e 47 85
e 47 87
e 47 92
e 47 93
e 47 95
e 47 97
e 47 98
e 47 99
e 47 104
e 47 110
e 47 117
e 47 118
e 47 119
e 47 122
e 47 123
e 47 127
e 47 131
e 47 132
e 47 135
e 47 136
e 47 138
e 47 141
e 47 144
e 47 146
e 47 147
e 48 49
e 48 50
e 48 52
e 48 53
e 48 55
e 48 56
e 48 57
e 48 58
e 48 59
e 48 60
e 48 61
e 48 63
e 48 64
e 48 65
e 48 66
e 48 67
e 48 69
e 48 72
e 48 74
e 48 75
e 48 77
e 48 79
e 48 82
e 48 84
e 48 90
e 48 92
e 48 94
e 48 100
e 48 102
e 48 103
e 48 106
e 48 111
e 48 113
e 48 115
e 48 119
e 48 120
e 48 123
e 48 131
e 48 135
e 48 140
e 48 141
e 48 145
e 48 146
e 49 50
e 49 52
e 49 54
e 49 55
e 49 56
e 49 57
e 49 59
e 49 60
e 49 61
e 49 63
e 49 64
e 49 66
e 49 67
e 49 69
e 49 71
e 49 73
e 49 74
e 49 75
e 49 79
e 49 82
e 49 84
e 49 86
e 49 87
e 49 90
e 49 91
e 49 95
e 49 103
e 49 104
e 49 105
e 49 108
e 49 109
e 49 112
e 49 113
e 49 114
e 49 115
e 49 117
e 49 118
e 49 119
e 49 120
e 49 124
e 49 135
e 49 136
e 49 138
e 49 141
e 49 144
e 50 52
e 50 54
e 50 55
e 50 56
e 50 57
e 50 59
e 50 60
e 50 62
e 50 65
e 50 66
e 50 70
e 50 71
e 50 72
e 50 73
e 50 79
e 50 80
e 50 81
e 50 85
e 50 87
e 50 88
e 50 89
e 50 93
e 50 95
e 50 96
e 50 98
e 50 100
e 50 101
e 50 104
e 50 107
e 50 110
e 50 111
e 50 112
e 50 114
e 50 116
e 50 118
e 50 119
e 50 121
e 50 124
e 50 129
e 50 139
e 50 143
e 50 145
e 50 150
e 51 54
e 51 55
e 51 57
e 51 58
e 51 60
e 51 61
e 51 63
e 51 65
e 51 70
e 51 72
e 51 73
e 51 74
e 51 75
e 51 76
e 51 79
e 51 83
e 51 84
e 51 85
e 51 86
e 51 87
e 51 88
e 51 95
e 51 96
e 51 97
e 51 101
e 51 107
e 51 110
e 51 113
e 51 114
e 51 116
e 51 117
e 51 119
e 51 121
e 51 126
e 51 128
e 51 130
e 51 131
e 51 135
e 51 144
e 51 148
e 52 54
e 52 55
e 52 56
e 52 57
e 52 58
e 52 59
e 52 61
e 52 62
e 52 65
e 52 68
e 52 69
e 52 70
e 52 71
e 52 72
e 52 73
e 52 75
e 52 76
e 52 77
e 52 78
e 52 79
e 52 80
e 52 82
e 52 84
e 52 89
e 52 91
e 52 95
e 52 102
e 52 109
e 52 112
e 52 113
e 52 114
e 52 116
e 52 119
e 52 123
e 52 126
e 52 127
e 52 134
e 52 140
e 52 142
e 52 143
e 52 145
e 52 146
e 52 150
e 53 54
e 53 55
e 53 57
e 53 58
e 53 60
e 53 65
e 53 68
e 53 69
e 53 72
e 53 74
e 53 76
e 53 78
e 53 82
e 53 83
e 53 85
e 53 86
e 53 89
e 53 91
e 53 92
e 53 93
e 53 94
e 53 95
e 53 96
e 53 97
e 53 98
e 53 101
e 53 103
e 53 104
e 53 107
e 53 108
e 53 112
e 53 114
e 53 115
e 53 116
e 53 119
e 53 120
e 53 127
e 53 129
e 53 131
e 53 133
e 53 140
e 53 146
e 53 148
e 53 150
e 54 55
e 54 56
e 54 58
e 54 59
e 54 60
e 54 61
e 54 62
e 54 63
e 54 64
e 54 66
e 54 69
e 54 70
e 54 71
e 54 72
e 54 73
e 54 75
e 54 78
e 54 80
e 54 81
e 54 82
e 54 85
e 54 93
e 54 94
e 54 97
e 54 102
e 54 111
e 54 115
e 54 118
e 54 137
e 54 141
e 54 142
e 54 146
e 54 148
e 54 149
e 54 150
e 55 56
e 55 57
e 55 58
e 55 60
e 55 62
e 55 63
e 55 68
e 55 69
e 55 70
e 55 77
e 55 83
e 55 85
e 55 87
e 55 90
e 55 92
e 55 98
e 55 100
e 55 105
e 55 106
e 55 113
e 55 121
e 55 122
e 55 124
e 55 126
e 55 128
e 55 132
e 55 136
e 55 138
e 55 142
e 55 143
e 55 145
e 55 146
e 55 147
e 56 58
e 56 59
e 56 60
e 56 61
e 56 62
e 56 63
e 56 64
e 56 65
e 56 68
e 56 70
e 56 72
e 56 74
e 56 75
e 56 79
e 56 83
e 56 84
e 56 86
e 56 88
e 56 90
e 56 91
e 56 92
e 56 95
e 56 96
e 56 108
e 56 110
e 56 117
e 56 118
e 56 124
e 56 125
e 56 135
e 56 137
e 56 138
e 56 140
e 56 141
e 56 142
e 56 145
e 56 146
e 56 149
e 57 58
e 57 61
e 57 62
e 57 68
e 57 70
e 57 73
e 57 75
e 57 76
e 57 77
e 57 78
e 57 80
e 57 82
e 57 87
e 57 88
e 57 89
e 57 92
e 57 94
e 57 95
e 57 96
e 57 97
e 57 98
e 57 99
e 57 103
e 57 106
e 57 107
e 57 110
e 57 111
e 57 113
e 57 121
e 57 125
e 57 127
e 57 131
e 57 136
e 57 138
e 57 140
e 57 144
e 57 147
e 57 150
e 58 63
e 58 64
e 58 65
e 58 66
e 58 68
e 58 69
e 58 70
e 58 71
e 58 73
e 58 76
e 58 78
e 58 79
e 58 80
e 58 81
e 58 84
e 58 87
e 58 88
e 58 89
e 58 102
e 58 104
e 58 106
e 58 107
e 58 108
e 58 109
e 58 110
e 58 124
e 58 125
e 58 126
e 58 129
e 58 134
e 58 138
e 58 140
e 58 148
e 59 61
e 59 62
e 59 64
e 59 65
e 59 71
e 59 75
e 59 78
e 59 81
e 59 82
e 59 90
e 59 91
e 59 93
e 59 95
e 59 97
e 59 98
e 59 102
e 59 107
e 59 110
e 59 111
e 59 113
e 59 118
e 59 123
e 59 124
e 59 130
e 59 132
e 59 133
e 59 137
e 59 138
e 59 142
e 59 148
e 59 149
e 60 61
e 60 62
e 60 64
e 60 66
e 60 73
e 60 75
e 60 76
e 60 80
e 60 82
e 60 83
e 60 85
e 60 88
e 60 98
e 60 99
e 60 103
e 60 105
e 60 107
e 60 109
e 60 110
e 60 112
e 60 115
e 60 123
e 60 125
e 60 136
e 60 140
e 60 141
e 60 142
e 60 147
e 60 150
e 61 62
e 61 63
e 61 64
e 61 66
e 61 67
e 61 70
e 61 71
e 61 72
e 61 74
e 61 77
e 61 79
e 61 83
e 61 84
e 61 86
e 61 89
e 61 91
e 61 94
e 61 95
e 61 97
e 61 99
e 61 100
e 61 101
e 61 105
e 61 117
e 61 118
e 61 121
e 61 122
e 61 127
e 61 128
e 61 129
e 61 130
e 61 131
e 61 137
e 61 141
e 61 142
e 61 149
e 62 63
e 62 64
e 62 66
e 62 67
e 62 68
e 62 75
e 62 76
e 62 78
e 62 79
e 62 80
e 62 81
e 62 82
e 62 85
e 62 88
e 62 89
e 62 91
e 62 94
e 62 95
e 62 97
e 62 100
e 62 103
e 62 106
e 62 111
e 62 113
e 62 114
e 62 115
e 62 121
e 62 127
e 62 128
e 62 141
e 63 65
e 63 67
e 63 68
e 63 77
e 63 78
e 63 83
e 63 84
e 63 87
e 63 89
e 63 90
e 63 96
e 63 97
e 63 98
e 63 99
e 63 102
e 63 103
e 63 104
e 63 105
e 63 108
e 63 112
e 63 113
e 63 116
e 63 117
e 63 118
e 63 119
e 63 122
e 63 129
e 63 133
e 63 136
e 63 148
e 63 149
e 64 65
e 64 66
e 64 70
e 64 71
e 64 74
e 64 75
e 64 77
e 64 82
e 64 85
e 64 88
e 64 90
e 64 91
e 64 93
e 64 95
e 64 99
e 64 101
e 64 103
e 64 106
e 64 110
e 64 111
e 64 115
e 64 116
e 64 117
e 64 124
e 64 125
e 64 139
e 64 143
e 65 66
e 65 67
e 65 68
e 65 70
e 65 73
e 65 78
e 65 83
e 65 90
e 65 91
e 65 92
e 65 93
e 65 95
e 65 97
e 65 98
e 65 100
e 65 105
e 65 125
e 65 127
e 65 130
e 65 131
e 65 135
e 65 138
e 65 141
e 65 147
e 66 68
e 66 74
e 66 75
e 66 76
e 66 78
e 66 81
e 66 86
e 66 89
e 66 93
e 66 95
e 66 100
e 66 103
e 66 108
e 66 110
e 66 112
e 66 115
e 66 121
e 66 122
e 66 127
e 66 128
e 66 129
e 66 134
e 66 135
e 66 140
e 66 148
e 66 150
e 67 69
e 67 73
e 67 80
e 67 86
e 67 94
e 67 96
e 67 105
e 67 107
e 67 111
e 67 112
e 67 113
e 67 117
e 67 123
e 67 127
e 67 131
e 67 132
e 67 135
e 67 139
e 67 140
e 67 144
e 67 149
e 68 77
e 68 78
e 68 80
e 68 81
e 68 82
e 68 90
e 68 93
e 68 97
e 68 102
e 68 111
e 68 113
e 68 121
e 68 126
e 68 127
e 68 131
e 68 135
e 68 144
e 68 150
e 69 70
e 69 71
e 69 72
e 69 75
e 69 77
e 69 80
e 69 93
e 69 94
e 69 96
e 69 97
e 69 101
e 69 102
e 69 103
e 69 109
e 69 110
e 69 116
e 69 130
e 69 132
e 69 143
e 70 71
e 70 74
e 70 76
e 70 77
e 70 80
e 70 81
e 70 82
e 70 83
e 70 85
e 70 90
e 70 94
e 70 95
e 70 99
e 70 107
e 70 117
e 70 123
e 70 124
e 70 128
e 70 137
e 70 138
e 70 141
e 70 144
e 70 147
e 71 78
e 71 83
e 71 90
e 71 96
e 71 99
e 71 102
e 71 104
e 71 105
e 71 107
e 71 117
e 71 119
e 71 129
e 71 130
e 71 132
e 71 133
e 71 136
e 71 138
e 71 142
e 72 74
e 72 76
e 72 77
e 72 78
e 72 80
e 72 82
e 72 88
e 72 91
e 72 97
e 72 99
e 72 100
e 72 106
e 72 109
e 72 112
e 72 113
e 72 120
e 72 122
e 72 123
e 72 130
e 72 133
e 72 137
e 72 141
e 72 143
e 72 145
e 72 148
e 72 149
e 73 77
e 73 78
e 73 80
e 73 85
e 73 88
e 73 90
e 73 91
e 73 92
e 73 93
e 73 101
e 73 115
e 73 128
e 73 131
e 73 135
e 73 142
e 73 144
e 74 75
e 74 80
e 74 83
e 74 85
e 74 86
e 74 87
e 74 94
e 74 101
e 74 102
e 74 105
e 74 106
e 74 115
e 74 127
e 74 132
e 74 134
e 74 137
e 74 144
e 74 149
e 75 76
e 75 87
e 75 88
e 75 89
e 75 99
e 75 100
e 75 102
e 75 103
e 75 105
e 75 106
e 75 109
e 75 121
e 75 124
e 75 125
e 75 131
e 75 138
e 75 146
e 75 147
e 75 150
e 76 79
e 76 83
e 76 86
e 76 87
e 76 91
e 76 97
e 76 102
e 76 105
e 76 116
e 76 119
e 76 130
e 76 135
e 76 147
e 77 78
e 77 79
e 77 81
e 77 87
e 77 88
e 77 89
e 77 92
e 77 101
e 77 104
e 77 109
e 77 110
e 77 120
e 77 122
e 77 123
e 77 126
e 77 127
e 77 133
e 77 134
e 77 139
e 77 140
e 77 150
e 78 81
e 78 82
e 78 85
e 78 86
e 78 91
e 78 94
e 78 100
e 78 101
e 78 105
e 78 107
e 78 111
e 78 112
e 78 114
e 78 117
e 78 121
e 78 123
e 78 129
e 78 132
e 78 134
e 78 140
e 78 147
e 79 82
e 79 83
e 79 89
e 79 102
e 79 103
e 79 108
e 79 124
e 79 128
e 79 129
e 79 132
e 79 133
e 79 143
e 79 147
e 79 148
e 80 81
e 80 86
e 80 87
e 80 92
e 80 96
e 80 98
e 80 102
e 80 103
e 80 108
e 80 110
e 80 120
e 80 126
e 80 133
e 80 137
e 80 144
e 80 145
e 80 148
e 81 84
e 81 92
e 81 93
e 81 98
e 81 100
e 81 102
e 81 105
e 81 114
e 81 116
e 81 118
e 81 120
e 81 129
e 81 130
e 82 86
e 82 90
e 82 93
e 82 94
e 82 97
e 82 101
e 82 103
e 82 109
e 82 110
e 82 111
e 82 112
e 82 113
e 82 121
e 82 130
e 82 132
e 82 135
e 82 136
e 82 137
e 82 144
e 82 146
e 82 149
e 83 84
e 83 85
e 83 89
e 83 90
e 83 91
e 83 97
e 83 104
e 83 106
e 83 112
e 83 118
e 83 130
e 83 134
e 83 136
e 83 139
e 83 143
e 83 144
e 84 88
e 84 89
e 84 93
e 84 96
e 84 97
e 84 100
e 84 103
e 84 106
e 84 114
e 84 118
e 84 124
e 84 133
e 84 135
e 85 87
e 85 96
e 85 100
e 85 107
e 85 116
e 85 122
e 85 126
e 85 136
e 85 144
e 86 88
e 86 90
e 86 93
e 86 109
e 86 112
e 86 114
e 86 117
e 86 129
e 86 134
e 86 136
e 86 141
e 86 145
e 87 91
e 87 93
e 87 94
e 87 112
e 87 114
e 87 117
e 87 122
e 87 128
e 87 132
e 87 134
e 87 135
e 87 136
e 88 89
e 88 94
e 88 103
e 88 106
e 88 108
e 88 112
e 88 115
e 88 116
e 88 122
e 88 127
e 88 128
e 88 131
e 88 132
e 88 140
e 88 142
e 88 145
e 89 92
e 89 96
e 89 97
e 89 98
e 89 99
e 89 106
e 89 117
e 89 126
e 89 128
e 89 132
e 89 137
e 89 144
e 89 148
e 90 95
e 90 98
e 90 103
e 90 105
e 90 113
e 90 121
e 90 126
e 90 127
e 90 129
e 90 131
e 90 132
e 90 136
e 90 143
e 90 146
e 90 149
e 91 98
e 91 101
e 91 102
e 91 103
e 91 104
e 91 108
e 91 110
e 91 111
e 91 112
e 91 116
e 91 119
e 91 127
e 91 131
e 91 136
e 91 139
e 91 143
e 91 144
e 91 148
e 92 94
e 92 95
e 92 96
e 92 100
e 92 101
e 92 116
e 92 123
e 92 126
e 92 131
e 92 138
e 92 142
e 92 149
e 93 94
e 93 98
e 93 102
e 93 106
e 93 108
e 93 113
e 93 115
e 93 116
e 93 118
e 93 130
e 93 138
e 93 141
e 93 142
e 93 145
e 93 149
e 94 103
e 94 109
e 94 116
e 94 120
e 94 122
e 94 124
e 94 126
e 94 128
e 94 130
e 94 139
e 94 141
e 95 96
e 95 97
e 95 98
e 95 102
e 95 112
e 95 117
e 95 120
e 95 124
e 95 125
e 95 131
e 95 134
e 96 113
e 96 114
e 96 118
e 96 122
e 96 124
e 96 126
e 96 133
e 96 138
e 96 140
e 96 141
e 96 144
e 97 99
e 97 100
e 97 103
e 97 106
e 97 107
e 97 109
e 97 110
e 97 117
e 97 118
e 97 119
e 97 124
e 97 125
e 97 127
e 97 137
e 97 146
e 97 149
e 98 101
e 98 104
e 98 107
e 98 113
e 98 119
e 98 123
e 98 124
e 98 128
e 98 136
e 98 138
e 98 139
e 99 108
e 99 109
e 99 112
e 99 114
e 99 122
e 99 123
e 99 125
e 99 128
e 99 134
e 100 112
e 100 115
e 100 117
e 100 126
e 100 130
e 100 145
e 100 149
e 101 104
e 101 105
e 101 106
e 101 114
e 101 115
e 101 123
e 101 124
e 101 125
e 101 128
e 101 135
e 101 137
e 101 139
e 101 150
e 102 104
e 102 108
e 102 114
e 102 115
e 102 116
e 102 130
e 102 132
e 102 134
e 102 140
e 102 147
e 103 114
e 103 116
e 103 123
e 103 125
e 103 126
e 103 128
e 103 131
e 103 138
e 103 145
e 104 105
e 104 107
e 104 114
e 104 120
e 104 123
e 104 126
e 104 143
e 104 145
e 104 149
e 105 110
e 105 120
e 105 121
e 105 128
e 105 132
e 105 138
e 105 139
e 105 142
e 105 147
e 106 108
e 106 117
e 106 122
e 106 123
e 106 124
e 106 128
e 106 131
e 106 142
e 107 114
e 107 115
e 107 123
e 107 128
e 107 139
e 107 140
e 107 141
e 108 109
e 108 110
e 108 111
e 108 112
e 108 117
e 108 128
e 108 133
e 108 141
e 108 145
e 108 150
e 109 110
e 109 112
e 109 117
e 109 122
e 109 131
e 109 134
e 109 143
e 110 118
e 110 122
e 110 124
e 110 130
e 110 134
e 110 145
e 110 146
e 111 113
e 111 119
e 111 123
e 111 127
e 111 129
e 111 134
e 111 137
e 111 140
e 111 143
e 111 147
e 111 149
e 112 114
e 112 118
e 112 130
e 112 136
e 113 119
e 113 123
e 113 148
e 114 118
e 114 122
e 114 132
e 114 133
e 114 146
e 115 116
e 115 123
e 116 117
e 116 121
e 116 129
e 116 131
e 116 132
e 116 134
e 116 142
e 116 148
e 117 121
e 117 125
e 117 131
e 117 138
e 117 141
e 118 119
e 118 121
e 118 129
e 118 134
e 118 135
e 118 145
e 118 147
e 118 150
e 119 121
e 119 124
e 119 126
e 119 136
e 119 137
e 119 139
e 119 148
e 119 150
e 120 121
e 120 125
e 120 130
e 120 144
e 120 147
e 121 125
e 121 127
e 121 131
e 121 135
e 121 141
e 121 145
e 121 146
e 122 131
e 122 132
e 122 139
e 122 146
e 123 138
e 123 139
e 123 140
e 123 142
e 123 145
e 123 147
e 123 149
e 124 126
e 124 128
e 125 139
e 125 142
e 125 150
e 126 129
e 126 130
e 126 137
e 127 129
e 127 132
e 127 133
e 127 143
e 127 146
e 127 150
e 128 131
e 128 132
e 128 133
e 128 147
e 128 149
e 129 135
e 130 132
e 130 134
e 130 143
e 131 143
e 131 146
e 131 148
e 132 136
e 132 146
e 132 148
e 133 134
e 133 142
e 133 148
e 134 135
e 134 138
e 134 140
e 134 142
e 135 139
e 135 148
e 136 140
e 136 142
e 136 145
e 137 140
e 137 144
e 138 141
e 139 143
e 139 145
e 139 150
e 140 141
e 140 145
e 141 142
e 141 144
e 143 150
e 146 150
e 147 148
